c A SAT instance generated from a 3-CNF formula that had 10 clauses and 10 variables
p cnf 10 10
-7 -2 -5 0
8 -1 6 0
-3 -9 1 0
-8 -3 10 0
7 8 -6 0
-2 -5 7 0
10 1 2 0
-8 -2 -5 0
-8 -1 -5 0
-2 6 -9 0
%
0

74 85 98 36 60 27 93 42 20 74
